# Timeseries visualisation template
# Variables: nsteps, mu11, dump_every
# Dumps op1 (positions/velocities/omega) and forces for atoms 1 & 2.
# Stress dump omitted — at dump_every=1 it would be huge.

units           si
atom_style      sphere
newton          off

boundary        p p f
read_data       3ps.dat

group           fine    id 1
group           bigfree id 2
group           bigfix  id 3

pair_style granular
pair_coeff 1 1 hertz/material 7.782e10 0.5 0.28 tangential mindlin NULL 0.0 ${mu11} damping coeff_restitution synchronized_verlet
pair_coeff 2 2 hertz/material 2.08e11  0.5 0.27 tangential mindlin NULL 0.0 0.3    damping coeff_restitution synchronized_verlet

timestep        1e-7

fix             frz bigfix freeze
fix             1 all nve/sphere
fix             2 all wall/gran granular hooke 1e4 0.5 tangential linear_history 8235 0 0.5 damping coeff_restitution zplane $(zlo) $(zhi)

dump            A all custom ${dump_every} op1.dump id type x y z vx vy vz omegax omegay omegaz diameter
dump_modify     A sort id

group           ore_mover id 1 2
dump            Fdump ore_mover custom ${dump_every} forces.dump id fx fy fz
dump_modify     Fdump sort id

comm_modify     vel yes
thermo          1000
thermo_style    custom step ke
run_style       verlet

run             ${nsteps}
